unsat
(define-fun max2 ((x Int) (y Int)) Int (ite (<= x y) y (+ x 0)))
12.91user 0.02system 0:12.94elapsed 99%CPU (0avgtext+0avgdata 59116maxresident)k
0inputs+8outputs (0major+9443minor)pagefaults 0swaps
